WARNING: for repeatability, setting FPU to use double precision
============================[ Problem Statistics ]=============================
|                                                                             |
|  Number of variables:         16278                                         |
|  Number of clauses:             965                                         |
|  Parse time:                   0.00 s                                       |
|                                                                             |
c ============================[ Search Statistics ]==============================
c | Conflicts |          ORIGINAL         |          LEARNT          | Progress |
c |           |    Vars  Clauses Literals |    Limit  Clauses Lit/Cl |          |
c ===============================================================================
We had 34 decisions of which only 0 were on extended
We had 2346047 decisions of which only 0.000340999 were on extended
We had 4380937 decisions of which only 0.0401056 were on extended
We had 14341800 decisions of which only 0.0855541 were on extended
We had 16013062 decisions of which only 0.114169 were on extended
We had 17749550 decisions of which only 0.146522 were on extended
We had 17769085 decisions of which only 0.14967 were on extended
We had 17787451 decisions of which only 0.15362 were on extended
We had 17804704 decisions of which only 0.157852 were on extended
We had 17821941 decisions of which only 0.163192 were on extended
CAREFUL: the definition is falsified in conflict 97097 at DL 21 (has happened 1 times)
We had 17836961 decisions of which only 0.171531 were on extended
We had 17850908 decisions of which only 0.179167 were on extended
We had 17867294 decisions of which only 0.186357 were on extended
We had 17883552 decisions of which only 0.194833 were on extended
We had 17898332 decisions of which only 0.201834 were on extended
We had 17911597 decisions of which only 0.207525 were on extended
We had 17925101 decisions of which only 0.214571 were on extended
We had 17939972 decisions of which only 0.226422 were on extended
We had 17954428 decisions of which only 0.237429 were on extended
Window full
Continue
We had 17968779 decisions of which only 0.250579 were on extended
We had 17981523 decisions of which only 0.264855 were on extended
We had 17993584 decisions of which only 0.282301 were on extended
We had 18005850 decisions of which only 0.303957 were on extended
We had 18018077 decisions of which only 0.327305 were on extended
We had 18030253 decisions of which only 0.34563 were on extended
c Switched to VSIDS.
We had 18043488 decisions of which only 0.368177 were on extended
We had 18056854 decisions of which only 0.38798 were on extended
We had 18069655 decisions of which only 0.411984 were on extended
We had 18082234 decisions of which only 0.44041 were on extended
Window full
Continue
We had 18094419 decisions of which only 0.467315 were on extended
We had 18106367 decisions of which only 0.496361 were on extended
We had 18118712 decisions of which only 0.520843 were on extended
We had 18131468 decisions of which only 0.551842 were on extended
We had 18144082 decisions of which only 0.580068 were on extended
We had 18156202 decisions of which only 0.613443 were on extended
We had 18168128 decisions of which only 0.648355 were on extended
We had 18179921 decisions of which only 0.678149 were on extended
We had 18192274 decisions of which only 0.714715 were on extended
We had 18204226 decisions of which only 0.752254 were on extended
Window full
Continue
We had 18216372 decisions of which only 0.788499 were on extended
We had 18228219 decisions of which only 0.824178 were on extended
We had 18240019 decisions of which only 0.859928 were on extended
We had 18251946 decisions of which only 0.890217 were on extended
We had 18263444 decisions of which only 0.926205 were on extended
We had 18274868 decisions of which only 0.961632 were on extended
We had 18286322 decisions of which only 0.995575 were on extended
We had 18297647 decisions of which only 1.02442 were on extended
We had 18309098 decisions of which only 1.05558 were on extended
We had 18320389 decisions of which only 1.09099 were on extended
Window full
Continue
We had 18331773 decisions of which only 1.12489 were on extended
We had 18343042 decisions of which only 1.15883 were on extended
We had 18354203 decisions of which only 1.19288 were on extended
We had 18365397 decisions of which only 1.22515 were on extended
We had 18376444 decisions of which only 1.25867 were on extended
We had 18387606 decisions of which only 1.29516 were on extended
We had 18398701 decisions of which only 1.3296 were on extended
c ===============================================================================
restarts                  : 649
conflicts                 : 553187         (7869 /sec)
decisions                 : 18402318       (0.00 % random) (261768 /sec)
propagations              : 67750157       (963729 /sec)
conflict literals         : 10090900       (26.63 % deleted)

conflicts w/ DIP found    : 361319         (65.32 % of conflicts)
conflicts w/ dangerous DIP: 13             (0.00 % of conflicts)
conflicts w/ DIP-learning : 10451          (1.89 % of conflicts)
decisions on ext vars     : 246837         (1.34 % of decisions)
total ext vars            : 1322        
tried delete ext vars     : 2           
deleted ext vars          : 2           
max ext vars              : 1320        

Memory used               : 56.00 MB
CPU time                  : 70.3 s
DIP computation time      : 2.97554 s (4.23 % of total time)
ER_sel time               : 0.499299 s
ER_add time               : 0.004713 s
ER_delC time              : 0 s
ER_delV time              : 0 s
ER_sub time               : 0.652722 s
ER_stat time              : 0 s

UNSATISFIABLE
